1 - 0
2 - 0
3 - 0
4 - 0
5 - 0
6 - 0
7 - 0
8 - 0
9 - 0
10 - 0
11 - 0
12 - 0
13 - 0
14 - 0
15 - 0
16 - 0
17 - 0
18 - 0
19 - 0
20 - 0
21 - 0
22 - 0
23 - 0
24 - 0
25 - 0
26 - 0
27 - 0
28 - 0
29 - 0
30 - 0
31 - 0
32 - 0
33 - 0
34 - 0
35 - 0
36 - 0
37 - 0
38 - 0
39 - 0
40 - 0
41 - 0
42 - 0
43 - 0
44 - 0
45 - 0
46 - 0
47 - 0
48 - 0
49 - 0
50 - 0
51 - 0
52 - 0
53 - 0
54 - 0
55 - 0
56 - 0
57 - 0
58 - 0
59 - 0
60 - 0
61 - 0
62 - 0
63 - 0
64 - 0
65 - 0
66 - 0
67 - 0
68 - 0
69 - 0
70 - 0
71 - 0
72 - 0
73 - 0
74 - 0
75 - 0
76 - 0
77 - 0
78 - 0
79 - 0
80 - 0
81 - 0
82 - 0
83 - 0
84 - 0
85 - 0
86 - 0
87 - 0
88 - 0
89 - 0
90 - 0
91 - 0
92 - 0
93 - 0
94 - 0
95 - 0
96 - 0
97 - 0
98 - 0
99 - 0
100 - 0
101 - 0
102 - 0
103 - 0
104 - 0
105 - 0
106 - 0
107 - 0
108 - 0
109 - 0
110 - 0
111 - 0
112 - 0
113 - 0
114 - 0
115 - 0
116 - 0
117 - 0
118 - 0
119 - 0
120 - 0
121 - 0
122 - 0
123 - 0
124 - 0
125 - 0
126 - 0
127 - 0
128 - 0
129 - 0
130 - 0
131 - 0
132 - 0
133 - 0
134 - 0
135 - 0
136 - 0
137 - 0
138 - 0
139 - 0
140 - 0
141 - 0
142 - 0
143 - 0
144 - 0
145 - 0
146 - 0
147 - 0
148 - 0
149 - 0
150 - 0
151 - 0
152 - 0
153 - 0
154 - 0
155 - 1
156 - 1
157 - 0
158 - 1
159 - 7
160 - 4
161 - 3
162 - 9
163 - 8
164 - 20
165 - 17
166 - 22
167 - 34
168 - 40
169 - 35
170 - 33
171 - 43
172 - 27
173 - 44
174 - 43
175 - 47
176 - 32
177 - 42
178 - 36
179 - 33
180 - 34
181 - 24
182 - 34
183 - 33
184 - 25
185 - 28
186 - 39
187 - 31
188 - 20
189 - 30
190 - 21
191 - 31
192 - 27
193 - 27
194 - 38
195 - 31
196 - 44
197 - 30
198 - 28
199 - 43
200 - 44
201 - 37
202 - 39
203 - 42
204 - 43
205 - 43
206 - 43
207 - 39
208 - 39
209 - 50
210 - 52
211 - 53
212 - 50
213 - 51
214 - 64
215 - 55
216 - 55
217 - 54
218 - 72
219 - 64
220 - 88
221 - 76
222 - 79
223 - 72
224 - 79
225 - 87
226 - 65
227 - 74
228 - 81
229 - 84
230 - 101
231 - 98
232 - 96
233 - 94
234 - 89
235 - 114
236 - 119
237 - 102
238 - 112
239 - 121
240 - 120
241 - 123
242 - 125
243 - 123
244 - 126
245 - 155
246 - 144
247 - 147
248 - 136
249 - 151
250 - 178
251 - 168
252 - 158
253 - 191
254 - 172
255 - 180
256 - 223
257 - 221
258 - 225
259 - 255
260 - 246
261 - 224
262 - 282
263 - 255
264 - 250
265 - 281
266 - 288
267 - 282
268 - 276
269 - 299
270 - 307
271 - 343
272 - 333
273 - 335
274 - 383
275 - 393
276 - 371
277 - 402
278 - 409
279 - 439
280 - 434
281 - 436
282 - 474
283 - 446
284 - 527
285 - 460
286 - 512
287 - 540
288 - 544
289 - 653
290 - 604
291 - 656
292 - 686
293 - 709
294 - 727
295 - 802
296 - 845
297 - 776
298 - 865
299 - 837
300 - 926
301 - 955
302 - 1011
303 - 1004
304 - 1059
305 - 1093
306 - 1175
307 - 1207
308 - 1237
309 - 1271
310 - 1407
311 - 1350
312 - 1465
313 - 1514
314 - 1489
315 - 1563
316 - 1650
317 - 1670
318 - 1768
319 - 1869
320 - 1835
321 - 1878
322 - 1910
323 - 1968
324 - 2004
325 - 2068
326 - 2056
327 - 2059
328 - 2095
329 - 2063
330 - 2062
331 - 2013
332 - 2044
333 - 1905
334 - 1929
335 - 1853
336 - 1796
337 - 1762
338 - 1647
339 - 1543
340 - 1452
341 - 1335
342 - 1279
343 - 1080
344 - 950
345 - 797
346 - 636
347 - 519
348 - 331
349 - 176
350 - 0

0.1 - 7192
0.2 - 7185
0.3 - 7239
0.4 - 19204
0.5 - 15648
0.6 - 13509
0.7 - 8276
0.8 - 8888
0.9 - 7078
1 - 5781
